LCHARG =.FALSE.
LWAVE  =.FALSE.

ENCUT  = 550.0
EDIFF  = 1e-06
LREAL  = Auto
NELM   = 60
IALGO  = 48
ISMEAR = 0
SIGMA  = 0.1

IBRION = 0
NSW    = 2000000
SMASS  = 2
ISIF   = 1
TEBEG  = 800.0
POTIM  = 1.5
NBLOCK = 10
